NAME: generated_5_sym_1_50_UniformDistrib_sparse.tsp
TYPE: TSP
COMMENT: Test case generated with custom generator!
DIMENSION: 5
EDGE_WEIGHT_TYPE: EXPLICIT
EDGE_WEIGHT_FORMAT: FULL_MATRIX
DISPLAY_DATA_TYPE: TWOD_DISPLAY
EDGE_WEIGHT_SECTION
0 31 43 15 99999 
31 0 99999 39 99999 
43 99999 0 99999 22 
15 39 99999 0 34 
99999 99999 22 34 0 
